ID_groupA
31762
42240
42240
31762
14132
42240
31762
31762
42240
42240
31762
5927
42240
31762
5927
42240
42240
14132
42240
42240
31762
42240
42240
42240
5927
42240
42240
5927
5927
14132
5927
42240
5927
14998
42240
5927
5927
5927
42240
42240
5927
42240
42240
42240
42240
42240
42240
5927
42240
42240
14132
5927
42240
31762
5927
42240
5927
5927
5927
42240
14132
42240
14132
14132
42240
14132
14132
14132
42240
42240
42240
5927
42240
5927
5927
5927
42240
42240
42240
42240
42240
42240
42240
42240
42240
42240
31762
5927
42240
31762
42240
5927
5927
5927
42240
42240
42240
42240
42240
5927
5927
42240
5927
42240
42240
